
List of user-set options:

                                    Name   Value                used
                linear_scaling_on_demand = no                    yes
                           linear_solver = ma86                  yes
                   linear_system_scaling = mc19                  yes
                              ma86_small = 1e-30                 yes
                                max_iter = 500                   yes
                                 mu_init = 1e-06                 yes
                        option_file_name = ./ipopt.opt           yes
                             output_file = ./tmp/ipopt_output_tmp.output  yes
                      print_user_options = yes                   yes
        required_infeasibility_reduction = 1                      no
                   warm_start_bound_push = 1e-20                 yes
                   warm_start_init_point = yes                   yes
              warm_start_mult_bound_push = 1e-20                 yes

******************************************************************************
This program contains Ipopt, a library for large-scale nonlinear optimization.
 Ipopt is released as open source code under the Eclipse Public License (EPL).
         For more information visit http://projects.coin-or.org/Ipopt
******************************************************************************

This is Ipopt version 3.12.10, running with linear solver ma86.

Number of nonzeros in equality constraint Jacobian...:   120428
Number of nonzeros in inequality constraint Jacobian.:      213
Number of nonzeros in Lagrangian Hessian.............:    47279

Total number of variables............................:    29961
                     variables with only lower bounds:    11312
                variables with lower and upper bounds:    15122
                     variables with only upper bounds:        0
Total number of equality constraints.................:    29863
Total number of inequality constraints...............:       25
        inequality constraints with only lower bounds:        4
   inequality constraints with lower and upper bounds:        0
        inequality constraints with only upper bounds:       21

iter    objective    inf_pr   inf_du lg(mu)  ||d||  lg(rg) alpha_du alpha_pr  ls
   0 -1.2507126e-01 1.49e-04 1.97e-03  -6.0 0.00e+00    -  0.00e+00 0.00e+00   0
   1 -1.2537372e-01 4.54e+00 5.02e+01  -6.0 1.25e+03    -  5.36e-03 4.16e-01h  1
   2 -1.2536701e-01 4.54e+00 5.02e+01  -6.0 3.20e+04    -  1.03e-07 1.13e-04f  2
   3 -1.2534713e-01 1.92e+00 5.18e+01  -6.0 2.49e-01  -4.0 2.74e-01 5.78e-01h  1
   4 -1.2542108e-01 1.77e+00 5.08e+01  -6.0 6.27e+02    -  5.70e-02 1.53e-01h  1
   5 -1.2529530e-01 1.02e+00 5.57e+01  -6.0 2.92e+02    -  1.50e-01 6.74e-01h  1
   6 -1.2527971e-01 7.42e-01 4.35e+01  -6.0 4.12e-01  -4.5 3.54e-01 2.72e-01h  1
   7 -1.2522494e-01 3.03e-01 2.09e+01  -6.0 6.62e-01  -5.0 4.30e-01 5.92e-01h  1
   8 -1.2520899e-01 6.58e-02 3.83e+00  -6.0 1.60e+00  -5.4 1.00e+00 7.83e-01h  1
   9 -1.2524308e-01 4.11e-02 1.26e+01  -6.0 3.94e+00  -5.9 1.00e+00 3.74e-01h  1
iter    objective    inf_pr   inf_du lg(mu)  ||d||  lg(rg) alpha_du alpha_pr  ls
  10 -1.2539327e-01 1.79e-02 1.48e+01  -6.0 1.07e+01  -6.4 1.00e+00 5.65e-01h  1
  11 -1.2541457e-01 6.85e-02 4.34e+01  -6.0 1.69e+02    -  2.45e-01 3.52e-01h  2
  12 -1.2542710e-01 4.95e-01 1.27e+02  -6.0 8.38e+03    -  8.51e-02 1.95e-02h  2
  13 -1.2542542e-01 5.77e-01 1.48e+02  -6.0 3.87e+03    -  5.16e-02 1.96e-02h  5
  14 -1.2542183e-01 6.25e-01 2.99e+02  -6.0 1.18e+04    -  1.85e-01 4.80e-03h  7
  15 -1.2554591e-01 1.67e-01 1.38e+02  -6.0 5.80e+00  -6.9 1.00e+00 7.33e-01h  1
  16 -1.2567161e-01 3.73e+01 1.53e+03  -6.0 2.87e+03    -  1.61e-01 9.44e-01H  1
  17 -1.2570549e-01 3.25e+01 5.43e+02  -6.0 1.10e+03    -  2.17e-01 1.22e-01h  1
  18 -1.2576969e-01 2.18e+01 1.75e+03  -6.0 9.87e+02    -  5.32e-01 2.90e-01h  1
  19 -1.2606112e-01 4.94e+00 3.78e+03  -6.0 1.59e+02    -  3.37e-01 7.66e-01h  1
iter    objective    inf_pr   inf_du lg(mu)  ||d||  lg(rg) alpha_du alpha_pr  ls
  20 -1.2605628e-01 1.54e+00 4.19e+06  -6.0 1.52e+02    -  1.77e-03 6.85e-01h  1
  21 -1.2605002e-01 1.34e+00 3.66e+06  -6.0 4.38e+01  -7.3 2.27e-01 1.28e-01h  1
  22 -1.2603002e-01 1.27e+00 3.48e+06  -6.0 1.15e+02  -7.8 1.01e-01 4.96e-02h  1
  23 -1.2585036e-01 2.59e-01 7.05e+05  -6.0 5.14e+01  -7.4 2.91e-01 7.97e-01h  1
  24 -1.2609892e-01 2.49e+00 4.89e+05  -6.0 1.21e+03    -  4.52e-04 3.06e-01f  1
  25 -1.2613238e-01 2.46e+00 4.83e+05  -6.0 2.80e+03  -7.0 2.28e-06 1.24e-02h  1
  26 -1.2612649e-01 2.41e+00 4.74e+05  -6.0 3.13e+00  -2.0 6.78e-03 1.92e-02h  1
  27 -1.2612275e-01 2.40e+00 4.72e+05  -6.0 6.02e+00  -2.5 1.74e-02 4.92e-03h  1
  28 -1.2611781e-01 2.36e+00 4.65e+05  -6.0 1.18e+00  -2.1 4.39e-02 1.50e-02h  1
  29 -1.2609439e-01 2.25e+00 4.42e+05  -6.0 2.74e+00  -2.6 5.34e-02 4.86e-02h  1
iter    objective    inf_pr   inf_du lg(mu)  ||d||  lg(rg) alpha_du alpha_pr  ls
  30 -1.2604557e-01 2.14e+00 4.22e+05  -6.0 1.24e+01  -3.0 5.94e-02 4.60e-02h  1
  31 -1.2604168e-01 2.13e+00 4.19e+05  -6.0 9.11e+00  -2.6 3.96e-02 7.30e-03h  1
  32 -1.2603081e-01 2.08e+00 4.09e+05  -6.0 3.45e+00  -3.1 5.36e-02 2.26e-02h  1
  33 -1.2603745e-01 2.02e+00 3.98e+05  -6.0 3.40e+00  -2.7 4.33e-03 2.83e-02h  1
  34 -1.2602828e-01 1.92e+00 3.78e+05  -6.0 2.90e+00  -3.1 5.02e-02 4.91e-02h  1
  35 -1.2599686e-01 1.90e+00 3.75e+05  -6.0 5.49e+01  -3.6 9.25e-03 9.13e-03h  1
  36 -1.2599187e-01 1.80e+00 3.54e+05  -6.0 2.60e+00  -3.2 1.32e-02 5.52e-02h  1
  37 -1.2598936e-01 1.72e+00 3.38e+05  -6.0 3.53e+00  -3.7 6.52e-02 4.53e-02h  1
  38 -1.2591736e-01 1.46e+00 2.87e+05  -6.0 2.45e+00  -3.2 4.48e-02 1.52e-01h  1
  39 -1.2590079e-01 1.37e+00 2.70e+05  -6.0 2.21e+00  -3.7 4.13e-01 5.96e-02h  1
iter    objective    inf_pr   inf_du lg(mu)  ||d||  lg(rg) alpha_du alpha_pr  ls
  40 -1.2585586e-01 1.06e+00 2.09e+05  -6.0 1.03e+00  -3.3 1.00e+00 2.24e-01h  1
  41 -1.2569833e-01 9.05e-04 3.15e+01  -6.0 7.16e-01  -3.8 5.41e-01 1.00e+00h  1
  42 -1.2571114e-01 1.35e-05 4.96e-01  -6.0 1.82e-01  -4.2 9.66e-01 1.00e+00h  1
  43 -1.2574805e-01 8.15e-04 4.46e+00  -6.0 9.48e-01  -4.7 1.85e-01 1.00e+00h  1
  44 -1.2583105e-01 8.30e-04 5.38e-01  -6.0 1.63e+00  -5.2 1.00e+00 1.00e+00h  1
  45 -1.2595602e-01 1.64e-03 3.50e-01  -6.0 2.86e+00  -5.7 1.00e+00 1.00e+00h  1
  46 -1.2597545e-01 1.42e-03 2.18e+00  -6.0 3.34e+00  -6.1 3.70e-01 1.64e-01h  1
  47 -1.2604413e-01 1.73e-03 8.00e+00  -6.0 5.28e+00  -6.6 9.87e-01 4.47e-01f  1
  48 -1.2611342e-01 2.34e-03 6.68e+01  -6.0 7.92e+00  -7.1 2.51e-01 5.31e-01f  1
  49 -1.2615042e-01 2.44e-03 2.18e+02  -6.0 2.25e+01  -7.6 1.00e+00 3.23e-01f  1
iter    objective    inf_pr   inf_du lg(mu)  ||d||  lg(rg) alpha_du alpha_pr  ls
  50 -1.2622618e-01 2.62e-02 8.77e+00  -6.0 5.37e+01  -8.1 1.00e+00 7.11e-01f  1
  51 -1.2626389e-01 4.92e-02 1.46e+01  -6.0 9.15e+01  -8.5 1.00e+00 4.91e-01f  1
  52 -1.2638252e-01 3.30e-01 3.90e+00  -6.0 1.36e+02  -9.0 6.77e-01 1.00e+00f  1
  53 -1.2638865e-01 2.84e-01 7.09e+00  -6.0 2.01e+02  -9.5 3.40e-01 2.39e-01h  1
  54 -1.2636381e-01 2.54e+00 4.45e+00  -6.0 5.82e+02 -10.0 1.00e+00 7.18e-01h  1
  55 -1.2635244e-01 1.88e+00 9.73e+00  -6.0 4.18e+02    -  1.00e+00 4.83e-01h  1
  56 -1.2629532e-01 1.07e+01 3.39e+01  -6.0 3.08e+03    -  7.16e-01 2.64e-01h  1
  57 -1.2626019e-01 1.48e+01 2.54e+01  -6.0 2.70e+03    -  2.91e-01 2.64e-01h  1
  58 -1.2619397e-01 1.64e+01 3.31e+01  -6.0 3.59e+03    -  9.62e-02 1.52e-01h  1
  59 -1.2612835e-01 1.75e+01 4.52e+01  -6.0 4.18e+03    -  3.00e-03 1.14e-01h  1
iter    objective    inf_pr   inf_du lg(mu)  ||d||  lg(rg) alpha_du alpha_pr  ls
  60 -1.2599088e-01 2.31e+01 1.08e+02  -6.0 4.59e+03    -  1.51e-01 1.82e-01h  1
  61 -1.2594705e-01 2.30e+01 1.08e+02  -6.0 2.24e+04  -9.5 8.25e-03 5.58e-03h  2
  62 -1.2583697e-01 2.31e+01 9.34e+01  -6.0 5.20e+03  -8.2 1.63e-02 7.15e-02h  1
  63 -1.2586338e-01 2.26e+01 9.51e+01  -6.0 1.74e+03  -8.7 5.63e-05 2.03e-02h  2
  64 -1.2590681e-01 5.06e-02 8.30e+02  -6.0 5.01e+01  -7.4 1.61e-01 1.00e+00h  1
  65 -1.2591752e-01 5.09e-02 8.27e+02  -6.0 1.71e+03    -  3.18e-02 4.07e-03h  2
  66 -1.2594484e-01 6.14e-01 7.85e+02  -6.0 3.14e+03    -  9.60e-01 5.13e-02h  1
  67 -1.2604218e-01 1.91e+00 1.63e+02  -6.0 2.35e+02    -  5.95e-01 9.73e-01h  1
  68 -1.2610940e-01 3.23e-01 2.30e+01  -6.0 9.73e+01    -  9.41e-01 8.60e-01h  1
  69 -1.2612596e-01 1.38e+00 9.77e+01  -6.0 5.37e+02    -  4.67e-01 3.77e-01h  1
iter    objective    inf_pr   inf_du lg(mu)  ||d||  lg(rg) alpha_du alpha_pr  ls
  70 -1.2611527e-01 6.70e-01 1.98e+02  -6.0 8.72e+04    -  7.73e-03 9.13e-04h  2
  71 -1.2609600e-01 1.87e+00 8.96e+02  -6.0 1.64e+03    -  6.55e-01 2.03e-01h  1
  72 -1.2615660e-01 1.58e+00 2.24e+02  -6.0 4.13e+02    -  7.40e-01 7.37e-01h  1
  73 -1.2624585e-01 1.48e+00 4.44e+02  -6.0 6.82e+02    -  1.44e-01 2.01e-01h  1
  74 -1.2625147e-01 1.13e+00 4.04e+04  -6.0 2.53e+02  -7.8 2.51e-02 2.37e-01h  1
  75 -1.2628404e-01 2.28e-02 4.75e+02  -6.0 2.46e+01  -8.3 5.37e-01 1.00e+00h  1
  76 -1.2636267e-01 2.80e-02 4.13e+02  -6.0 2.78e+02  -8.8 9.74e-02 1.22e-01h  1
  77 -1.2636904e-01 9.58e-02 4.12e+02  -6.0 5.14e+02    -  2.91e-01 1.60e-01h  1
  78 -1.2639112e-01 3.55e-01 5.20e+02  -6.0 7.03e+02    -  8.87e-01 2.24e-01h  1
  79 -1.2650593e-01 6.39e-02 8.30e+00  -6.0 5.93e+01    -  1.00e+00 9.79e-01h  1
iter    objective    inf_pr   inf_du lg(mu)  ||d||  lg(rg) alpha_du alpha_pr  ls
  80 -1.2663695e-01 6.72e-02 4.07e+01  -6.0 5.98e+01    -  3.70e-01 1.00e+00h  1
  81 -1.2667509e-01 6.21e-02 1.79e+01  -6.0 1.08e+02    -  4.02e-01 1.44e-01h  1
  82 -1.2684238e-01 7.38e-02 5.19e+00  -6.0 6.26e+01    -  9.46e-01 1.00e+00h  1
  83 -1.2689942e-01 6.92e-02 4.68e+01  -6.0 6.21e+01    -  4.13e-01 2.37e-01h  1
  84 -1.2706566e-01 3.26e-01 8.50e+00  -6.0 5.14e+01    -  8.63e-01 8.43e-01h  1
  85 -1.2729996e-01 2.10e+00 2.16e+02  -6.0 3.11e+02    -  1.93e-01 8.88e-01f  1
  86 -1.2733783e-01 1.45e+00 1.28e+02  -6.0 1.08e+02    -  5.08e-01 3.16e-01h  1
  87 -1.2737886e-01 6.48e-01 5.02e+02  -6.0 2.04e+02    -  2.56e-01 6.98e-01h  1
  88 -1.2736069e-01 2.44e-01 9.49e+02  -6.0 1.17e+02    -  9.06e-02 1.00e+00h  1
  89 -1.2736219e-01 1.09e-01 3.59e+02  -6.0 6.68e-01  -4.8 8.02e-01 5.53e-01h  1
iter    objective    inf_pr   inf_du lg(mu)  ||d||  lg(rg) alpha_du alpha_pr  ls
  90 -1.2735942e-01 9.66e-05 2.81e-01  -6.0 5.48e-01  -5.2 1.00e+00 1.00e+00h  1
  91 -1.2737400e-01 9.78e-04 4.87e+00  -6.0 1.72e+01    -  1.00e+00 4.29e-01h  2
  92 -1.2739943e-01 5.87e-03 5.56e-02  -6.0 1.75e+01    -  1.00e+00 1.00e+00h  1
  93 -1.2740490e-01 1.16e-03 3.24e-03  -6.0 7.77e+00    -  1.00e+00 1.00e+00h  1
  94 -1.2740511e-01 2.34e-06 1.00e-04  -6.0 3.51e-01    -  1.00e+00 1.00e+00h  1
  95 -1.2740510e-01 5.03e-10 8.47e-08  -6.0 4.31e-03    -  1.00e+00 1.00e+00h  1
  96 -1.2766127e-01 2.36e-01 1.38e+02  -9.0 3.06e+02    -  1.42e-01 4.26e-01f  1
  97 -1.2781876e-01 1.82e+00 1.51e+02  -9.0 6.29e+02    -  1.42e-01 3.45e-01h  1
  98 -1.2788315e-01 1.73e+00 1.34e+02  -9.0 2.44e+03    -  1.17e-01 8.90e-02h  1
  99 -1.2800413e-01 3.91e+00 8.98e+01  -9.0 1.32e+03    -  3.40e-01 3.51e-01h  1
iter    objective    inf_pr   inf_du lg(mu)  ||d||  lg(rg) alpha_du alpha_pr  ls
 100 -1.2803427e-01 3.67e+00 6.04e+01  -9.0 2.16e+03    -  3.48e-01 8.38e-02h  1
 101 -1.2816920e-01 1.16e+01 3.84e+01  -9.0 2.35e+03    -  3.84e-01 3.73e-01h  1
 102 -1.2817063e-01 1.16e+01 3.83e+01  -9.0 3.38e+03    -  1.26e-05 3.40e-03h  1
 103 -1.2834614e-01 4.09e+01 3.69e+01  -9.0 3.96e+03    -  1.87e-03 4.15e-01h  1
 104 -1.2834814e-01 4.08e+01 3.68e+01  -9.0 8.94e+03    -  1.17e-05 2.93e-03h  1
 105 -1.2844891e-01 5.91e+01 1.10e+02  -9.0 6.34e+03    -  1.76e-03 2.24e-01h  1
 106 -1.2848821e-01 6.10e+01 1.29e+02  -9.0 7.25e+03    -  6.67e-02 1.03e-01h  1
 107 -1.2848794e-01 6.08e+01 1.28e+02  -9.0 2.08e+03    -  1.52e-03 4.04e-03h  1
 108 -1.2849109e-01 5.87e+01 1.25e+02  -9.0 2.11e+03    -  6.87e-03 3.53e-02h  1
 109 -1.2851323e-01 4.84e+01 1.03e+02  -9.0 2.10e+03    -  2.49e-02 2.45e-01h  1
iter    objective    inf_pr   inf_du lg(mu)  ||d||  lg(rg) alpha_du alpha_pr  ls
 110 -1.2851508e-01 4.12e+01 8.85e+01  -9.0 2.98e+02    -  6.99e-02 1.51e-01h  1
 111 -1.2851586e-01 3.86e+01 8.16e+01  -9.0 3.15e+02    -  1.57e-01 6.32e-02h  1
 112 -1.2852368e-01 2.57e+00 2.43e+01  -9.0 2.41e+02    -  3.40e-01 9.61e-01h  1
 113 -1.2852402e-01 2.39e+00 1.45e+01  -9.0 1.88e+02    -  3.90e-01 7.17e-02h  1
 114 -1.2852982e-01 5.40e-01 1.12e+01  -9.0 1.90e+02    -  5.92e-01 1.00e+00h  1
 115 -1.2853467e-01 4.88e-01 5.50e+01  -9.0 2.99e+02    -  5.46e-01 1.65e-01h  1
 116 -1.2856498e-01 1.52e+00 1.78e+01  -9.0 3.17e+02    -  8.93e-01 1.00e+00h  1
 117 -1.2857799e-01 1.50e+00 4.62e+01  -9.0 5.74e+02    -  3.86e-01 3.01e-01h  1
 118 -1.2858646e-01 1.47e+00 7.81e+02  -9.0 6.86e+02    -  1.00e+00 1.88e-01h  1
 119 -1.2859102e-01 1.33e+00 5.48e+02  -9.0 2.24e+02    -  2.64e-01 9.93e-02h  1
iter    objective    inf_pr   inf_du lg(mu)  ||d||  lg(rg) alpha_du alpha_pr  ls
 120 -1.2862109e-01 2.17e+00 5.39e+03  -9.0 4.71e+02    -  1.90e-02 7.35e-01h  1
 121 -1.2862359e-01 2.09e+00 5.81e+03  -9.0 1.10e+03    -  1.77e-03 3.54e-02h  1
 122 -1.2862465e-01 2.00e+00 5.79e+03  -9.0 7.90e+02    -  3.28e-02 4.52e-02h  1
 123 -1.2859229e-01 9.12e-01 1.41e+04  -9.0 2.63e+02    -  1.75e-02 5.55e-01h  1
 124 -1.2859161e-01 8.95e-01 1.38e+04  -9.0 1.26e+01  -5.7 1.24e-02 1.80e-02h  1
 125 -1.2859159e-01 8.95e-01 1.38e+04  -9.0 6.59e+00  -6.2 7.58e-02 6.40e-04h  1
 126 -1.2857916e-01 5.86e-01 9.05e+03  -9.0 1.73e+00  -6.7 1.19e-01 3.45e-01h  1
 127 -1.2859936e-01 6.34e-01 8.66e+03  -9.0 1.48e+03    -  7.65e-02 4.25e-02h  1
 128 -1.2860857e-01 5.60e-01 7.08e+03  -9.0 2.62e+02    -  3.17e-02 1.82e-01h  1
 129 -1.2861347e-01 4.58e-01 5.36e+03  -9.0 1.78e+02    -  8.29e-01 2.43e-01h  1
iter    objective    inf_pr   inf_du lg(mu)  ||d||  lg(rg) alpha_du alpha_pr  ls
 130 -1.2862162e-01 3.34e-01 4.38e+02  -9.0 1.40e+02    -  2.05e-01 9.09e-01h  1
 131 -1.2861889e-01 1.51e-01 1.98e+02  -9.0 5.79e+00  -7.1 7.18e-02 5.47e-01h  1
 132 -1.2862327e-01 1.19e-01 1.55e+02  -9.0 2.58e+01  -7.6 3.35e-01 2.17e-01h  1
 133 -1.2862898e-01 2.71e-03 7.93e-01  -9.0 8.23e+00  -7.2 5.40e-01 1.00e+00h  1
 134 -1.2864632e-01 9.69e-03 5.91e-01  -9.0 5.16e+01  -7.7 1.93e-01 2.52e-01h  1
 135 -1.2864672e-01 9.36e-03 8.02e-01  -9.0 4.51e+02    -  2.51e-01 3.48e-02f  1
 136 -1.2865447e-01 8.70e-03 3.72e+00  -9.0 1.61e+02    -  5.57e-01 1.19e-01h  1
 137 -1.2868396e-01 1.13e-01 3.11e+00  -9.0 1.24e+02    -  1.00e+00 6.31e-01h  1
 138 -1.2870872e-01 8.04e-02 1.92e+00  -9.0 9.72e+01    -  5.78e-01 5.41e-01h  1
 139 -1.2876005e-01 6.46e-01 5.61e-01  -9.0 1.35e+02    -  1.00e+00 1.00e+00h  1
iter    objective    inf_pr   inf_du lg(mu)  ||d||  lg(rg) alpha_du alpha_pr  ls
 140 -1.2878272e-01 3.98e-01 1.10e+01  -9.0 2.60e+02    -  4.65e-01 3.61e-01h  1
 141 -1.2880992e-01 5.42e-01 9.25e+01  -9.0 3.00e+02    -  1.00e+00 4.29e-01h  1
 142 -1.2883102e-01 3.82e-01 1.01e+02  -9.0 2.23e+02    -  6.13e-01 3.28e-01h  1
 143 -1.2884971e-01 3.40e-01 6.75e+01  -9.0 2.72e+02    -  2.71e-01 2.93e-01h  1
 144 -1.2886774e-01 2.55e-01 2.49e+01  -9.0 1.38e+02    -  1.60e-03 3.42e-01h  1
 145 -1.2890872e-01 5.13e-02 3.71e+02  -9.0 3.69e+01    -  1.29e-01 8.00e-01h  1
 146 -1.2896426e-01 1.48e-02 8.62e+02  -9.0 2.88e+01    -  5.15e-01 1.00e+00f  1
 147 -1.2897761e-01 1.27e-02 7.06e+02  -9.0 4.51e+01    -  3.52e-01 1.60e-01h  1
 148 -1.2900900e-01 9.98e-03 7.21e+03  -9.0 3.93e+01    -  9.57e-01 3.12e-01h  1
 149 -1.2901535e-01 7.86e+00 1.66e+05  -9.0 1.18e+04    -  4.77e-03 6.31e-02h  1
iter    objective    inf_pr   inf_du lg(mu)  ||d||  lg(rg) alpha_du alpha_pr  ls
 150 -1.2904936e-01 7.15e+00 1.37e+05  -9.0 1.22e+03    -  1.91e-01 1.70e-01h  1
 151 -1.2905404e-01 6.28e+00 1.19e+05  -9.0 4.95e+02    -  1.47e-01 1.29e-01h  1
 152 -1.2905523e-01 6.09e+00 1.15e+05  -9.0 8.30e+02    -  2.75e-01 3.32e-02h  1
 153 -1.2906389e-01 2.36e+00 3.85e+04  -9.0 1.96e+02    -  5.67e-02 6.49e-01h  1
 154 -1.2909769e-01 2.13e+00 3.47e+04  -9.0 1.08e+02  -8.1 4.90e-03 9.64e-02h  1
 155 -1.2905176e-01 1.50e+00 2.46e+04  -9.0 2.30e+01  -8.6 1.39e-02 2.94e-01h  1
 156 -1.2902883e-01 5.28e-02 8.93e+01  -9.0 3.58e+01  -9.1 3.01e-05 1.00e+00h  1
 157 -1.2906580e-01 3.18e-02 3.38e+01  -9.0 3.92e+01    -  1.00e+00 6.43e-01h  1
 158 -1.2912535e-01 1.84e-02 1.25e+01  -9.0 4.55e+01    -  3.19e-01 6.58e-01h  1
 159 -1.2920587e-01 3.96e-02 6.97e-01  -9.0 5.20e+01    -  9.06e-01 1.00e+00h  1
iter    objective    inf_pr   inf_du lg(mu)  ||d||  lg(rg) alpha_du alpha_pr  ls
 160 -1.2921446e-01 3.98e-02 3.44e+00  -9.0 2.02e+02    -  2.96e-01 8.29e-02h  1
 161 -1.2930839e-01 4.84e-01 1.41e+01  -9.0 1.83e+02    -  7.66e-02 1.00e+00h  1
 162 -1.2931882e-01 5.29e-01 8.20e+00  -9.0 7.72e+02    -  3.99e-01 1.06e-01h  1
Scaling factors are invalid - setting them all to 1.
 163 -1.2941560e-01 7.15e+00 5.04e+01  -9.0 7.07e+02    -  1.10e-01 1.00e+00h  1
 164 -1.2943296e-01 6.20e+00 6.25e+01  -9.0 8.91e+02    -  9.24e-02 2.01e-01h  1
Scaling factors are invalid - setting them all to 1.
 165 -1.2951744e-01 1.31e+01 1.16e+02  -9.0 9.37e+02    -  5.42e-01 1.00e+00h  1
 166 -1.2953747e-01 1.13e+01 1.65e+02  -9.0 1.23e+03    -  8.13e-01 3.10e-01h  1
 167 -1.2959931e-01 2.61e+01 1.63e+02  -9.0 1.28e+03    -  5.37e-01 1.00e+00h  1
 168 -1.2962022e-01 2.04e+01 3.00e+02  -9.0 1.30e+03    -  2.76e-01 3.79e-01h  1
 169 -1.2965005e-01 1.40e+01 3.72e+02  -9.0 8.91e+02    -  5.99e-01 4.55e-01h  1
iter    objective    inf_pr   inf_du lg(mu)  ||d||  lg(rg) alpha_du alpha_pr  ls
 170 -1.2967851e-01 1.05e+01 3.14e+03  -9.0 6.12e+02    -  9.81e-04 2.90e-01h  1
 171 -1.2971330e-01 9.61e+00 5.66e+03  -9.0 1.29e+03    -  1.37e-01 1.96e-01h  1
 172 -1.2971862e-01 3.51e+01 1.20e+05  -9.0 3.81e+04    -  2.38e-03 3.18e-02h  1
 173 -1.2976669e-01 2.66e+01 8.99e+04  -9.0 2.45e+02    -  6.85e-02 2.45e-01h  1
 174 -1.2977056e-01 2.62e+01 8.86e+04  -9.0 9.51e+02  -8.7 2.70e-05 1.48e-02h  1
 175 -1.2978337e-01 2.44e+01 8.25e+04  -9.0 6.42e+01  -8.2 2.65e-01 6.83e-02h  1
 176 -1.2981517e-01 2.05e+01 6.94e+04  -9.0 9.25e+01  -8.7 9.30e-02 1.59e-01h  1
 177 -1.2983454e-01 1.90e+01 6.42e+04  -9.0 7.00e+02    -  4.68e-01 7.54e-02h  1
 178 -1.2983500e-01 1.87e+01 6.32e+04  -9.0 1.56e+02  -7.4 5.45e-06 1.53e-02h  1
 179 -1.2985410e-01 1.71e+01 5.79e+04  -9.0 1.88e+01  -7.0 2.13e-01 8.38e-02h  1
iter    objective    inf_pr   inf_du lg(mu)  ||d||  lg(rg) alpha_du alpha_pr  ls
 180 -1.2989820e-01 1.09e+01 3.68e+04  -9.0 1.79e+01  -6.5 6.91e-02 3.62e-01h  1
 181 -1.2989960e-01 1.06e+01 3.56e+04  -9.0 1.11e+02  -7.0 7.97e-03 3.20e-02h  1
 182 -1.2994397e-01 8.54e+00 2.87e+04  -9.0 1.66e+01  -5.7 2.64e-02 1.94e-01h  1
In iteration 182, 1 Slack too small, adjusting variable bound
 183 -1.2998648e-01 6.91e+00 2.32e+04  -9.0 1.27e+01  -5.3 3.33e-02 1.91e-01h  1
 184 -1.3002141e-01 6.01e+00 2.02e+04  -9.0 1.23e+01  -4.8 1.44e-02 1.31e-01h  1
 185 -1.3002216e-01 5.84e+00 1.96e+04  -9.0 1.08e+00  -4.4 2.91e-02 2.81e-02h  1
 186 -1.3002440e-01 3.68e+00 1.24e+04  -9.0 1.01e+00  -4.0 2.69e-02 3.69e-01h  1
 187 -1.3003027e-01 2.59e+00 8.71e+03  -9.0 9.44e-01  -4.5 1.04e-01 2.96e-01h  1
 188 -1.3003215e-01 2.53e+00 8.51e+03  -9.0 4.24e+00  -4.9 1.04e-06 2.22e-02h  1
 189 -1.3003579e-01 2.44e+00 8.21e+03  -9.0 6.83e+00  -4.5 1.55e-02 3.55e-02h  1
iter    objective    inf_pr   inf_du lg(mu)  ||d||  lg(rg) alpha_du alpha_pr  ls
 190 -1.3003580e-01 2.22e+00 7.44e+03  -9.0 6.44e-01  -4.1 5.87e-01 9.35e-02h  1
 191 -1.3003528e-01 2.12e+00 7.10e+03  -9.0 3.83e-01  -3.7 3.79e-01 4.54e-02h  1
 192 -1.3003450e-01 1.48e+00 4.96e+03  -9.0 2.76e+00  -4.1 9.81e-02 3.01e-01h  1
 193 -1.3003547e-01 1.44e+00 4.82e+03  -9.0 4.72e+00  -4.6 4.08e-01 2.91e-02h  1
 194 -1.3003975e-01 1.37e+00 4.61e+03  -9.0 6.15e+00  -5.1 3.73e-02 4.29e-02h  1
 195 -1.3004700e-01 1.32e+00 4.45e+03  -9.0 6.64e+00  -5.6 8.60e-01 3.60e-02h  1
 196 -1.3005446e-01 1.29e+00 4.32e+03  -9.0 1.34e+01  -6.0 5.70e-01 2.79e-02h  1
 197 -1.3011975e-01 1.18e+00 3.98e+03  -9.0 3.34e+01  -6.5 2.71e-02 8.01e-02h  1
 198 -1.3013478e-01 1.14e+00 3.83e+03  -9.0 2.84e+01  -6.1 2.06e-01 3.60e-02h  1
 199 -1.3033437e-01 1.04e+00 3.49e+03  -9.0 1.07e+02  -6.6 2.55e-02 9.13e-02h  1
iter    objective    inf_pr   inf_du lg(mu)  ||d||  lg(rg) alpha_du alpha_pr  ls
 200 -1.3035311e-01 1.03e+00 3.45e+03  -9.0 8.30e+02    -  7.66e-02 9.84e-03h  1
 201 -1.3038362e-01 9.92e-01 3.33e+03  -9.0 2.32e+02    -  2.12e-01 3.55e-02h  1
 202 -1.3049978e-01 8.44e-01 2.81e+03  -9.0 1.68e+02    -  1.36e-01 1.58e-01h  1
 203 -1.3061510e-01 5.54e-01 1.85e+03  -9.0 1.10e+02    -  4.33e-01 3.45e-01h  1
 204 -1.3062167e-01 5.42e-01 1.81e+03  -9.0 8.15e+01    -  5.34e-01 2.07e-02h  1
 205 -1.3091213e-01 2.47e-01 1.67e+02  -9.0 8.01e+01    -  8.18e-01 9.24e-01h  1
 206 -1.3091370e-01 2.45e-01 1.65e+02  -9.0 6.76e+00  -5.2 2.66e-02 7.15e-03h  1
 207 -1.3094858e-01 2.05e-01 1.38e+02  -9.0 6.84e+00  -4.8 1.65e-02 1.64e-01h  1
 208 -1.3097970e-01 1.74e-01 1.18e+02  -9.0 6.66e+00  -5.3 1.47e-02 1.48e-01h  1
 209 -1.3105414e-01 1.10e-01 1.67e+02  -9.0 6.55e+00  -5.8 1.77e-01 3.70e-01f  1
iter    objective    inf_pr   inf_du lg(mu)  ||d||  lg(rg) alpha_du alpha_pr  ls
 210 -1.3116624e-01 4.34e-02 1.55e+02  -9.0 6.01e+00  -5.3 3.17e-01 6.06e-01h  1
 211 -1.3117872e-01 3.96e-02 3.95e+02  -9.0 4.96e+00  -4.9 2.77e-01 8.78e-02h  1
 212 -1.3117872e-01 3.96e-02 3.95e+02  -9.0 8.66e+01  -5.4 6.18e-04 3.23e-07h  2
 213 -1.3117882e-01 3.96e-02 1.73e+02  -9.0 4.78e+00  -5.9 1.85e-01 5.44e-04h  1
 214 -1.3129222e-01 1.24e-01 4.00e+02  -9.0 4.87e+00  -5.4 3.05e-02 7.62e-01f  1
 215 -1.3131893e-01 8.66e-02 3.73e+02  -9.0 3.91e+00  -5.9 1.93e-01 3.16e-01h  1
 216 -1.3132672e-01 8.27e-02 2.12e+02  -9.0 7.70e+00  -6.4 5.81e-01 4.64e-02h  1
 217 -1.3134345e-01 7.88e-02 1.50e+03  -9.0 1.67e+01  -6.9 1.00e+00 4.77e-02h  1
 218 -1.3136919e-01 7.45e-02 1.91e+03  -9.0 2.41e+01  -7.4 4.96e-01 5.35e-02h  1
 219 -1.3138004e-01 7.28e-02 2.49e+03  -9.0 4.70e+01  -7.8 5.11e-01 2.36e-02h  1
iter    objective    inf_pr   inf_du lg(mu)  ||d||  lg(rg) alpha_du alpha_pr  ls
 220 -1.3155732e-01 4.17e-02 1.33e+03  -9.0 2.82e+01  -8.3 3.37e-01 4.31e-01h  1
 221 -1.3161569e-01 2.77e-02 1.76e+03  -9.0 2.13e+01  -8.8 8.54e-01 4.50e-01h  1
 222 -1.3166106e-01 3.53e-02 4.41e+03  -9.0 2.76e+01  -9.3 1.00e+00 2.95e-01f  1
 223 -1.3180170e-01 1.39e-02 1.50e+03  -9.0 2.84e+01  -9.7 4.45e-01 8.53e-01h  1
 224 -1.3182003e-01 1.20e+00 1.79e+05  -9.0 2.78e+03 -10.2 5.44e-03 9.32e-02h  1
 225 -1.3201183e-01 4.75e+00 3.19e+04  -9.0 5.18e+02 -10.7 7.71e-06 9.84e-01h  1
 226 -1.3198115e-01 3.03e+00 1.70e+04  -9.0 3.65e+02 -11.2 9.22e-01 4.77e-01h  1
Scaling factors are invalid - setting them all to 1.
Scaling factors are invalid - setting them all to 1.
 227 -1.3189498e-01 4.58e-01 3.60e+02  -9.0 1.51e+02 -11.7 5.30e-01 1.00e+00h  1
Scaling factors are invalid - setting them all to 1.
 228 -1.3190453e-01 4.64e-01 3.03e+02  -9.0 5.94e+02 -12.1 3.68e-01 1.59e-01h  1
Scaling factors are invalid - setting them all to 1.
 229 -1.3190503e-01 7.97e-01 3.03e+02  -9.0 6.15e+04    -  1.03e-04 1.87e-03h  1
Scaling factors are invalid - setting them all to 1.
iter    objective    inf_pr   inf_du lg(mu)  ||d||  lg(rg) alpha_du alpha_pr  ls
 230 -1.3190503e-01 7.97e-01 3.03e+02  -9.0 4.33e+00  -2.3 1.94e-10 5.61e-04h  1
Scaling factors are invalid - setting them all to 1.
Scaling factors are invalid - setting them all to 1.
 231 -1.3190501e-01 7.91e-01 3.00e+02  -9.0 7.78e-01  -2.8 4.52e-02 6.95e-03h  1
Scaling factors are invalid - setting them all to 1.
 232r-1.3190501e-01 7.91e-01 9.99e+02  -0.1 0.00e+00    -  0.00e+00 5.68e-09R  9
 233r-1.3190898e-01 7.91e-01 7.91e+03  -0.1 3.29e+06    -  3.74e-09 2.56e-09f  1
 234 -1.3191184e-01 7.91e-01 6.14e+00  -9.0 3.22e+06    -  2.16e-04 1.13e-06h  1
Scaling factors are invalid - setting them all to 1.
 235 -1.3217603e-01 5.83e+01 1.36e+01  -9.0 3.03e+06    -  2.46e-04 6.00e-04h  1
Scaling factors are invalid - setting them all to 1.
 236 -1.3221420e-01 5.83e+01 5.55e+01  -9.0 2.96e+05    -  2.63e-07 2.48e-04h  1
Scaling factors are invalid - setting them all to 1.
 237 -1.3237414e-01 5.85e+01 5.62e+01  -9.0 1.87e+06    -  1.07e-05 4.77e-05h  1
Scaling factors are invalid - setting them all to 1.
 238 -1.3253168e-01 5.83e+01 7.22e+01  -9.0 1.32e+05    -  1.14e-04 2.64e-03h  1
Scaling factors are invalid - setting them all to 1.
 239 -1.3253715e-01 5.83e+01 7.22e+01  -9.0 6.15e+04    -  2.61e-06 1.24e-04h  1
Scaling factors are invalid - setting them all to 1.
iter    objective    inf_pr   inf_du lg(mu)  ||d||  lg(rg) alpha_du alpha_pr  ls
 240 -1.3282996e-01 5.79e+01 7.16e+01  -9.0 6.08e+04    -  4.27e-03 7.08e-03h  1
Scaling factors are invalid - setting them all to 1.
 241 -1.3288600e-01 5.76e+01 7.13e+01  -9.0 1.78e+04    -  9.25e-03 4.82e-03h  1
Scaling factors are invalid - setting them all to 1.
 242 -1.3289822e-01 5.74e+01 7.09e+01  -9.0 6.99e+03    -  6.00e-02 4.57e-03h  1
Scaling factors are invalid - setting them all to 1.
 243 -1.3291284e-01 5.63e+01 6.98e+01  -9.0 3.56e+03    -  5.91e-02 1.81e-02h  1
Scaling factors are invalid - setting them all to 1.
 244 -1.3292242e-01 5.42e+01 6.70e+01  -9.0 3.20e+03    -  8.11e-02 3.90e-02h  1
Scaling factors are invalid - setting them all to 1.
 245 -1.3291980e-01 4.67e+01 5.68e+01  -9.0 1.26e+03    -  5.53e-02 1.51e-01h  1
Scaling factors are invalid - setting them all to 1.
 246 -1.3291375e-01 4.63e+01 5.63e+01  -9.0 5.00e+03    -  2.05e-02 8.80e-03h  1
Scaling factors are invalid - setting them all to 1.
 247 -1.3275644e-01 3.57e+01 4.27e+01  -9.0 8.80e+02    -  1.04e-02 2.40e-01h  1
 248 -1.3269045e-01 3.36e+01 4.02e+01  -9.0 1.79e+03    -  2.41e-04 5.91e-02h  1
In iteration 248, 1 Slack too small, adjusting variable bound
 249 -1.3269034e-01 3.36e+01 4.02e+01  -9.0 7.34e+02  -3.2 2.14e-10 7.30e-05h  1
Scaling factors are invalid - setting them all to 1.
iter    objective    inf_pr   inf_du lg(mu)  ||d||  lg(rg) alpha_du alpha_pr  ls
 250 -1.3268904e-01 3.36e+01 4.02e+01  -9.0 1.55e+02  -3.7 3.51e-05 8.29e-04h  1
Scaling factors are invalid - setting them all to 1.
 251 -1.3268581e-01 3.35e+01 4.01e+01  -9.0 1.42e+01  -4.2 4.23e-04 1.75e-03h  1
 252 -1.3267787e-01 3.34e+01 3.99e+01  -9.0 1.47e+01  -4.7 2.96e-03 4.27e-03h  1
 253 -1.3220910e-01 2.49e+01 2.98e+01  -9.0 1.48e+01  -5.1 6.67e-03 2.54e-01h  1
 254 -1.3208597e-01 2.27e+01 2.71e+01  -9.0 1.02e+01  -5.6 5.60e-02 8.81e-02h  2
 255 -1.3204318e-01 2.20e+01 2.62e+01  -9.0 8.46e+00  -6.1 2.45e-01 3.33e-02h  5
 256 -1.3201949e-01 2.15e+01 2.57e+01  -9.0 1.48e+01  -6.6 6.87e-02 1.98e-02h  4
 257 -1.3201322e-01 2.14e+01 2.56e+01  -9.0 7.98e+00  -6.2 1.62e-01 5.17e-03h  8
 258 -1.3201047e-01 2.14e+01 2.55e+01  -9.0 1.66e+01  -6.6 5.92e-02 2.37e-03h  6
 259 -1.3122300e-01 7.34e+00 8.76e+00  -9.0 8.15e+00  -6.2 2.67e-01 6.57e-01h  1
iter    objective    inf_pr   inf_du lg(mu)  ||d||  lg(rg) alpha_du alpha_pr  ls
 260 -1.3117916e-01 6.37e+00 7.60e+00  -9.0 7.73e+00  -6.7 4.03e-01 1.32e-01h  1
 261 -1.3117797e-01 6.32e+00 7.55e+00  -9.0 2.17e+01  -7.2 2.35e-01 7.26e-03h  1
 262 -1.3103981e-01 3.44e+00 4.10e+00  -9.0 7.87e+00  -6.7 9.62e-01 4.57e-01h  1
 263 -1.3103783e-01 3.32e+00 3.96e+00  -9.0 2.20e+01  -7.2 4.20e-01 3.36e-02h  1
 264 -1.3107468e-01 2.77e+00 3.30e+00  -9.0 7.26e+01  -7.7 1.00e+00 1.67e-01h  1
 265 -1.3106737e-01 1.02e+00 1.21e+00  -9.0 2.39e+01  -7.3 5.91e-01 6.32e-01h  1
 266 -1.3123782e-01 5.29e-01 6.22e-01  -9.0 6.65e+01  -7.7 7.85e-01 4.88e-01h  1
 267 -1.3124245e-01 5.23e-01 1.25e+00  -9.0 3.11e+02  -8.2 1.00e+00 1.24e-02h  1
 268 -1.3131267e-01 3.94e-01 1.76e-01  -9.0 7.81e+01  -7.8 8.23e-01 9.15e-01h  1
 269 -1.3133637e-01 2.69e-01 5.88e-02  -9.0 1.62e+02  -8.3 8.14e-02 1.34e-01h  1
iter    objective    inf_pr   inf_du lg(mu)  ||d||  lg(rg) alpha_du alpha_pr  ls
 270 -1.3142094e-01 6.38e-01 1.55e+00  -9.0 2.49e+02  -8.7 2.01e-02 3.13e-01h  1
 271 -1.3140337e-01 5.96e-01 1.21e+00  -9.0 2.22e+02  -9.2 5.43e-02 7.81e-02h  1
 272 -1.3143946e-01 5.94e-01 1.30e+00  -9.0 6.47e+02  -9.7 2.36e-01 5.32e-02h  1
 273 -1.3146950e-01 5.37e-01 6.88e-01  -9.0 2.65e+02 -10.2 2.19e-01 1.13e-01h  1
 274 -1.3171397e-01 1.16e+00 3.91e-01  -9.0 3.13e+02 -10.7 6.42e-01 7.76e-01h  1
 275 -1.3171877e-01 1.15e+00 4.01e-01  -9.0 7.99e+02 -11.1 3.59e-02 8.12e-03h  1
 276 -1.3176831e-01 1.14e+00 6.51e-01  -9.0 8.12e+02 -11.6 7.60e-01 8.29e-02f  1
 277 -1.3191105e-01 1.72e+00 5.64e-01  -9.0 9.79e+02 -12.1 2.76e-01 2.28e-01h  1
 278 -1.3191595e-01 1.71e+00 3.39e-01  -9.0 1.32e+03    -  2.45e-01 8.82e-03h  1
 279 -1.3201761e-01 1.34e+01 2.59e-02  -9.0 9.75e+02    -  1.00e+00 9.94e-01h  1
Scaling factors are invalid - setting them all to 1.
iter    objective    inf_pr   inf_du lg(mu)  ||d||  lg(rg) alpha_du alpha_pr  ls
 280 -1.3201619e-01 1.32e+01 5.26e-02  -9.0 5.58e+03    -  7.34e-02 1.95e-02h  3
Scaling factors are invalid - setting them all to 1.
 281 -1.3201599e-01 1.31e+01 5.78e-01  -9.0 1.42e+04    -  1.28e-01 2.91e-03h  5
Scaling factors are invalid - setting them all to 1.
 282 -1.3201126e-01 1.26e+01 5.85e-01  -9.0 2.56e+03 -12.6 8.70e-02 6.55e-02h  1
Scaling factors are invalid - setting them all to 1.
 283 -1.3201117e-01 1.26e+01 1.02e+00  -9.0 1.85e+04    -  3.38e-07 1.49e-03h  7
Scaling factors are invalid - setting them all to 1.
 284 -1.3201074e-01 1.25e+01 3.23e+01  -9.0 5.53e+03 -13.0 3.47e-01 1.03e-02h  1
Scaling factors are invalid - setting them all to 1.
In iteration 284, 1 Slack too small, adjusting variable bound
 285 -1.3200860e-01 1.21e+01 3.25e+01  -9.0 1.85e+00  -5.2 2.11e-04 3.08e-02h  1
Scaling factors are invalid - setting them all to 1.
 286 -1.3197846e-01 6.64e+00 3.38e+01  -9.0 1.78e+00  -5.7 3.05e-02 4.52e-01h  1
Scaling factors are invalid - setting them all to 1.
 287 -1.3196340e-01 3.81e+00 9.59e+03  -9.0 9.65e-01  -6.1 1.50e-06 4.26e-01h  1
Scaling factors are invalid - setting them all to 1.
 288 -1.3194336e-01 1.66e-03 9.50e+01  -9.0 7.97e-01  -6.6 5.25e-01 1.00e+00h  1
Scaling factors are invalid - setting them all to 1.
 289 -1.3194493e-01 4.38e-01 8.45e+01  -9.0 4.90e+03    -  2.90e-01 3.67e-02h  1
Scaling factors are invalid - setting them all to 1.
iter    objective    inf_pr   inf_du lg(mu)  ||d||  lg(rg) alpha_du alpha_pr  ls
 290 -1.3194764e-01 1.81e+00 6.94e+01  -9.0 1.13e+04    -  8.74e-02 2.83e-02h  2
Scaling factors are invalid - setting them all to 1.
 291 -1.3195022e-01 3.03e+00 6.39e+01  -9.0 3.19e+04    -  1.87e-02 9.58e-03h  1
Scaling factors are invalid - setting them all to 1.
 292 -1.3195023e-01 3.03e+00 6.38e+01  -9.0 6.68e+03    -  5.22e-01 7.59e-04h  1
Scaling factors are invalid - setting them all to 1.
 293 -1.3195041e-01 2.83e+00 5.95e+01  -9.0 3.42e+03    -  2.04e-01 6.70e-02h  3
Scaling factors are invalid - setting them all to 1.
 294 -1.3195047e-01 2.77e+00 5.82e+01  -9.0 7.02e+03    -  3.97e-01 2.19e-02h  4
Scaling factors are invalid - setting them all to 1.
 295 -1.3195048e-01 2.77e+00 5.82e+01  -9.0 1.19e+04    -  1.58e-02 9.34e-04h  8
Scaling factors are invalid - setting them all to 1.
 296 -1.3195048e-01 2.77e+00 5.81e+01  -9.0 1.33e+04    -  5.44e-02 4.22e-04h  9
Scaling factors are invalid - setting them all to 1.
 297 -1.3195048e-01 2.76e+00 5.81e+01  -9.0 1.22e+04    -  1.30e-01 9.25e-04h  8
Scaling factors are invalid - setting them all to 1.
 298 -1.3195053e-01 2.75e+00 5.77e+01  -9.0 7.07e+03    -  6.00e-02 6.54e-03h  6
Scaling factors are invalid - setting them all to 1.
 299 -1.3195054e-01 2.75e+00 5.75e+01  -9.0 7.13e+03    -  1.89e-02 3.39e-03h  7
Scaling factors are invalid - setting them all to 1.
iter    objective    inf_pr   inf_du lg(mu)  ||d||  lg(rg) alpha_du alpha_pr  ls
 300 -1.3195056e-01 2.74e+00 5.73e+01  -9.0 7.48e+03    -  9.96e-01 3.29e-03h  7
Scaling factors are invalid - setting them all to 1.
 301 -1.3195066e-01 2.69e+00 5.56e+01  -9.0 1.72e+03    -  3.79e-02 2.96e-02h  6
Scaling factors are invalid - setting them all to 1.
 302 -1.3195076e-01 2.71e+00 5.46e+01  -9.0 3.97e+03    -  1.83e-01 1.83e-02h  6
Scaling factors are invalid - setting them all to 1.
 303 -1.3195373e-01 7.09e+01 2.33e+01  -9.0 3.79e+03    -  4.96e-02 6.07e-01w  1
Scaling factors are invalid - setting them all to 1.
Scaling factors are invalid - setting them all to 1.
 304 -1.3195274e-01 3.53e+01 1.61e+01  -9.0 8.86e+00  -7.1 4.42e-04 5.02e-01w  1
Scaling factors are invalid - setting them all to 1.
Scaling factors are invalid - setting them all to 1.
 305 -1.3195223e-01 1.72e-01 5.09e-01  -9.0 2.51e+00  -7.6 6.71e-01 1.00e+00h  1
Scaling factors are invalid - setting them all to 1.
 306 -1.3195237e-01 2.71e+00 4.33e-01  -9.0 2.77e+03    -  7.48e-03 1.47e-01h  2
Scaling factors are invalid - setting them all to 1.
 307 -1.3195269e-01 3.77e+01 2.82e-01  -9.0 4.31e+03    -  4.20e-01 3.46e-01h  1
Scaling factors are invalid - setting them all to 1.
 308 -1.3195296e-01 3.91e+01 4.22e-01  -9.0 3.45e+03    -  1.00e+00 3.42e-01H  1
Scaling factors are invalid - setting them all to 1.
 309 -1.3195351e-01 1.12e+02 7.87e-01  -9.0 9.36e+03    -  4.65e-02 5.71e-02H  1
Scaling factors are invalid - setting them all to 1.
iter    objective    inf_pr   inf_du lg(mu)  ||d||  lg(rg) alpha_du alpha_pr  ls
 310 -1.3195402e-01 3.58e+00 8.41e+00  -9.0 6.35e+02    -  7.63e-01 1.00e+00h  1
Scaling factors are invalid - setting them all to 1.
 311 -1.3195409e-01 3.55e+00 8.11e+00  -9.0 2.75e+03    -  3.91e-01 3.64e-02h  1
Scaling factors are invalid - setting them all to 1.
 312 -1.3195440e-01 1.12e+01 1.16e+00  -9.0 9.38e+02    -  1.00e+00 1.00e+00h  1
Scaling factors are invalid - setting them all to 1.
Scaling factors are invalid - setting them all to 1.
 313 -1.3195441e-01 8.77e+00 9.05e-01  -9.0 1.73e+00  -8.1 3.40e-01 2.16e-01h  1
Scaling factors are invalid - setting them all to 1.
Scaling factors are invalid - setting them all to 1.
 314 -1.3195442e-01 8.82e-04 1.51e-01  -9.0 1.39e+00  -8.5 9.00e-01 1.00e+00h  1
Scaling factors are invalid - setting them all to 1.
Scaling factors are invalid - setting them all to 1.
 315 -1.3195442e-01 9.85e-05 2.54e-03  -9.0 8.18e-01  -9.0 1.00e+00 1.00e+00h  1
Scaling factors are invalid - setting them all to 1.
Scaling factors are invalid - setting them all to 1.
 316 -1.3195443e-01 9.35e-04 4.33e-06  -9.0 2.46e+00  -9.5 1.00e+00 1.00e+00h  1
Scaling factors are invalid - setting them all to 1.
Scaling factors are invalid - setting them all to 1.
 317 -1.3195443e-01 9.32e-03 1.47e-05  -9.0 7.46e+00 -10.0 1.00e+00 1.00e+00h  1
Scaling factors are invalid - setting them all to 1.
Scaling factors are invalid - setting them all to 1.
 318 -1.3195446e-01 8.29e-02 1.40e-04  -9.0 2.30e+01 -10.4 1.00e+00 1.00e+00h  1
Scaling factors are invalid - setting them all to 1.
Scaling factors are invalid - setting them all to 1.
 319 -1.3195454e-01 3.46e-01 1.58e-03  -9.0 7.64e+01 -10.9 1.00e+00 1.00e+00h  1
Scaling factors are invalid - setting them all to 1.
Scaling factors are invalid - setting them all to 1.
iter    objective    inf_pr   inf_du lg(mu)  ||d||  lg(rg) alpha_du alpha_pr  ls
 320 -1.3195477e-01 6.25e-01 4.62e-02  -9.0 3.37e+02 -11.4 1.00e+00 6.69e-01h  1
